
n_res = 6;
rcap = [19, 17, 266, 257, 258, 256];
rtype = [1, 1, 2, 2, 2, 2];
n_tasks = 50;
modes =  [{1, 2, 3}, {4, 5, 6}, {7, 8, 9}, {10, 11, 12}, {13, 14, 15}, {16, 17, 18}, {19, 20, 21}, {22, 23, 24}, {25, 26, 27}, {28, 29, 30}, {31, 32, 33}, {34, 35, 36}, {37, 38, 39}, {40, 41, 42}, {43, 44, 45}, {46, 47, 48}, {49, 50, 51}, {52, 53, 54}, {55, 56, 57}, {58, 59, 60}, {61, 62, 63}, {64, 65, 66}, {67, 68, 69}, {70, 71, 72}, {73, 74, 75}, {76, 77, 78}, {79, 80, 81}, {82, 83, 84}, {85, 86, 87}, {88, 89, 90}, {91, 92, 93}, {94, 95, 96}, {97, 98, 99}, {100, 101, 102}, {103, 104, 105}, {106, 107, 108}, {109, 110, 111}, {112, 113, 114}, {115, 116, 117}, {118, 119, 120}, {121, 122, 123}, {124, 125, 126}, {127, 128, 129}, {130, 131, 132}, {133, 134, 135}, {136, 137, 138}, {139, 140, 141}, {142, 143, 144}, {145, 146, 147}, {148, 149, 150}];
succ =  [{10, 9, 2}, {11, 6, 5}, {16, 11, 8}, {16, 11, 8}, {12, 8}, {16, 8}, {11, 8}, {22, 15, 14, 13}, {22, 21, 18, 16, 15}, {34, 15, 14}, {34, 24, 22, 19, 14}, {23, 21, 15}, {34, 24, 23, 20, 19, 17}, {25, 23, 21, 20, 18}, {24, 20, 19, 17}, {34, 23, 20, 17}, {28, 27, 26, 25}, {31, 30, 28, 27}, {28, 27, 25}, {38, 31, 30, 27}, {36, 29, 26}, {33, 29, 25}, {28, 26}, {38, 37, 33, 32, 30}, {43, 38, 37, 36, 30}, {38, 37, 33, 30}, {36, 35, 29}, {38, 37, 33, 32}, {37, 32}, {44, 41, 39, 35}, {50, 49, 40, 33}, {44, 43, 42, 41, 40, 39}, {47, 44, 43, 42, 41}, {50, 43, 41, 40}, {50, 42, 40}, {41, 39}, {49, 48, 47, 45, 41}, {50, 49, 47, 45, 42}, {49, 48, 47, 46, 45}, {47, 46, 45}, {46}, {48}, {45}, {46}, {}, {}, {}, {}, {}, {}];
n_opt = 150;
dur = [7, 8, 9, 2, 3, 4, 2, 9, 10, 4, 6, 10, 2, 6, 10, 6, 9, 10, 2, 3, 4, 5, 6, 10, 1, 5, 9, 1, 2, 5, 3, 5, 8, 2, 8, 10, 6, 7, 8, 2, 6, 10, 1, 3, 10, 1, 7, 9, 4, 5, 10, 4, 8, 9, 5, 7, 8, 7, 8, 9, 5, 6, 10, 4, 6, 7, 1, 3, 4, 3, 4, 8, 4, 5, 7, 2, 4, 6, 1, 3, 7, 3, 5, 6, 2, 8, 9, 1, 3, 4, 3, 4, 5, 2, 7, 10, 2, 9, 10, 3, 7, 8, 2, 5, 8, 3, 7, 8, 2, 4, 7, 2, 5, 10, 2, 4, 9, 6, 7, 10, 2, 7, 9, 3, 6, 9, 2, 3, 4, 5, 8, 9, 1, 3, 10, 2, 4, 10, 7, 9, 10, 1, 2, 4, 3, 6, 7, 2, 6, 9];
rreq = [|9, 9, 9, 8, 7, 7, 3, 3, 3, 5, 5, 5, 6, 4, 4, 6, 6, 3, 7, 7, 7, 10, 9, 8, 7, 6, 6, 9, 8, 8, 8, 6, 4, 2, 2, 2, 9, 7, 6, 5, 4, 2, 9, 8, 8, 7, 5, 2, 6, 5, 4, 6, 6, 6, 7, 7, 5, 4, 2, 2, 7, 5, 3, 5, 4, 2, 5, 4, 4, 7, 6, 6, 8, 6, 3, 9, 8, 8, 9, 9, 9, 4, 3, 1, 6, 4, 3, 6, 5, 5, 7, 7, 7, 9, 9, 9, 3, 2, 2, 6, 5, 5, 6, 6, 5, 9, 8, 6, 10, 8, 4, 7, 4, 3, 4, 2, 2, 7, 6, 4, 6, 3, 2, 9, 8, 8, 10, 9, 9, 9, 5, 2, 3, 3, 3, 9, 9, 9, 8, 7, 6, 4, 4, 4, 7, 6, 6, 2, 2, 2
 |7, 7, 7, 9, 6, 3, 9, 8, 5, 9, 9, 7, 9, 8, 7, 8, 7, 7, 7, 7, 7, 8, 6, 5, 5, 5, 3, 4, 3, 3, 7, 6, 3, 8, 5, 4, 6, 4, 4, 8, 7, 7, 10, 8, 7, 6, 5, 5, 3, 3, 3, 2, 2, 1, 6, 5, 3, 4, 4, 4, 5, 5, 5, 5, 4, 1, 6, 5, 5, 9, 9, 8, 10, 9, 9, 5, 5, 4, 8, 7, 7, 3, 3, 3, 8, 6, 4, 7, 6, 5, 7, 7, 7, 8, 5, 2, 4, 2, 1, 7, 7, 3, 4, 4, 4, 8, 5, 3, 5, 3, 1, 9, 6, 4, 10, 9, 8, 8, 6, 5, 7, 7, 3, 5, 5, 4, 4, 4, 2, 2, 1, 1, 8, 4, 2, 7, 4, 3, 7, 7, 7, 7, 7, 7, 7, 3, 2, 5, 4, 4
 |3, 2, 1, 8, 5, 2, 3, 3, 2, 7, 7, 5, 9, 5, 3, 9, 6, 5, 5, 4, 3, 10, 10, 10, 1, 1, 1, 7, 6, 4, 8, 7, 6, 7, 7, 5, 8, 5, 4, 8, 8, 5, 4, 2, 2, 9, 8, 8, 8, 4, 1, 7, 3, 2, 10, 6, 3, 8, 7, 2, 9, 8, 8, 3, 3, 2, 3, 1, 1, 8, 8, 6, 10, 8, 8, 4, 4, 4, 3, 3, 3, 9, 7, 5, 5, 3, 2, 9, 9, 8, 6, 5, 4, 6, 6, 6, 5, 3, 3, 8, 7, 7, 5, 5, 5, 7, 5, 4, 8, 7, 7, 5, 5, 5, 4, 3, 3, 5, 4, 4, 5, 3, 3, 5, 3, 3, 4, 3, 2, 10, 8, 8, 9, 7, 5, 8, 6, 5, 7, 5, 3, 5, 3, 3, 6, 4, 2, 5, 5, 5
 |3, 2, 2, 4, 4, 4, 4, 2, 1, 6, 6, 6, 5, 3, 3, 8, 7, 7, 7, 6, 4, 9, 8, 8, 9, 8, 8, 2, 1, 1, 7, 4, 1, 7, 5, 4, 8, 8, 8, 4, 4, 3, 7, 6, 5, 8, 4, 2, 9, 8, 8, 5, 4, 3, 5, 4, 4, 9, 6, 3, 10, 6, 4, 8, 7, 6, 7, 7, 7, 6, 6, 5, 7, 7, 6, 7, 5, 5, 5, 4, 4, 8, 5, 4, 6, 5, 3, 5, 5, 5, 5, 3, 3, 5, 4, 1, 8, 7, 5, 8, 8, 8, 6, 6, 4, 3, 2, 2, 2, 2, 2, 4, 3, 2, 6, 4, 4, 4, 3, 2, 5, 3, 3, 8, 6, 6, 6, 5, 5, 7, 5, 3, 3, 2, 1, 9, 8, 6, 7, 4, 2, 6, 3, 3, 3, 2, 1, 9, 8, 8
 |5, 2, 2, 6, 6, 6, 9, 8, 8, 8, 7, 7, 3, 2, 1, 4, 3, 2, 9, 9, 9, 7, 4, 1, 10, 8, 7, 9, 4, 4, 8, 7, 7, 3, 1, 1, 7, 6, 5, 6, 6, 4, 3, 3, 3, 5, 5, 5, 6, 5, 5, 8, 6, 5, 7, 4, 4, 5, 4, 4, 5, 5, 1, 7, 7, 7, 9, 9, 8, 7, 6, 6, 8, 6, 6, 6, 5, 4, 9, 7, 5, 8, 7, 7, 5, 3, 2, 2, 1, 1, 3, 3, 1, 3, 2, 1, 10, 10, 10, 2, 1, 1, 9, 7, 7, 5, 3, 2, 7, 5, 5, 7, 6, 2, 7, 3, 2, 6, 3, 2, 10, 6, 4, 5, 5, 3, 4, 3, 3, 5, 5, 5, 7, 4, 2, 2, 2, 1, 3, 3, 2, 6, 5, 5, 8, 7, 7, 8, 4, 3
 |4, 3, 1, 6, 3, 3, 1, 1, 1, 9, 7, 5, 8, 7, 5, 8, 6, 4, 5, 5, 3, 6, 6, 3, 9, 5, 3, 7, 6, 5, 8, 6, 2, 2, 2, 2, 10, 8, 5, 10, 9, 7, 7, 6, 5, 6, 4, 4, 4, 4, 1, 7, 7, 7, 3, 2, 2, 5, 5, 2, 9, 8, 6, 5, 4, 4, 1, 1, 1, 5, 4, 2, 5, 4, 3, 3, 2, 2, 8, 7, 7, 6, 4, 2, 6, 4, 1, 6, 5, 4, 7, 6, 5, 6, 4, 3, 5, 3, 2, 6, 5, 4, 9, 8, 8, 3, 3, 3, 8, 7, 7, 9, 8, 7, 9, 9, 9, 4, 3, 2, 8, 6, 5, 7, 6, 6, 10, 5, 4, 5, 4, 4, 6, 2, 2, 8, 8, 7, 5, 4, 4, 2, 2, 1, 8, 7, 7, 8, 8, 8|];